core/snapshot/target/ssa/_carrier_sha256_finish.smt2
; Command:
; > z3 -in -smt2

(set-logic QF_UFBV)
(declare-fun theory0_len ((_ BitVec 64)) (_ BitVec 64)); theory len
(declare-fun theory1_safe ((_ BitVec 64)) Bool); theory safe
(declare-fun theory2_nullterm ((_ BitVec 64)) Bool); theory nullterm
(declare-fun theory3_symbol ((_ BitVec 64)) Bool); theory symbol
; : /home/runner/work/carrier/carrier/core/src/sha256.zz:2
; : /home/runner/work/carrier/carrier/core/src/sha256.zz:3
; : /home/runner/work/carrier/carrier/modules/slice/src/slice.zz:3
; : /home/runner/work/carrier/carrier/modules/slice/src/slice.zz:8
(declare-fun theory7___slice__slice__integrity ((_ BitVec 64)) Bool); theory ::slice::slice::integrity
; : /home/runner/work/carrier/carrier/modules/slice/src/slice.zz:63
(declare-fun var8___slice__slice__split__t0 () (_ BitVec 64))
(declare-fun var9_true__t0 () Bool)
(assert
  (= var9_true__t0 (theory1_safe var8___slice__slice__split__t0) )
)

(assert
  var9_true__t0
)

; : /home/runner/work/carrier/carrier/modules/buffer/src/lib.zz:11
; : /home/runner/work/carrier/carrier/modules/buffer/src/lib.zz:16
(declare-fun theory11___buffer__integrity ((_ BitVec 64) (_ BitVec 64)) Bool); theory ::buffer::integrity
; : /home/runner/work/carrier/carrier/modules/buffer/src/lib.zz:134
(declare-fun var12___buffer__available__t0 () (_ BitVec 64))
(declare-fun var13_true__t0 () Bool)
(assert
  (= var13_true__t0 (theory1_safe var12___buffer__available__t0) )
)

(assert
  var13_true__t0
)

; : /home/runner/work/carrier/carrier/modules/slice/src/slice.zz:3
; : /home/runner/work/carrier/carrier/modules/buffer/src/lib.zz:59
(declare-fun var14___buffer__as_slice__t0 () (_ BitVec 64))
(declare-fun var15_true__t0 () Bool)
(assert
  (= var15_true__t0 (theory1_safe var14___buffer__as_slice__t0) )
)

(assert
  var15_true__t0
)

; : /home/runner/work/carrier/carrier/modules/buffer/src/lib.zz:304
(declare-fun var16___buffer__fgets__t0 () (_ BitVec 64))
(declare-fun var17_true__t0 () Bool)
(assert
  (= var17_true__t0 (theory1_safe var16___buffer__fgets__t0) )
)

(assert
  var17_true__t0
)

; : /home/runner/work/carrier/carrier/modules/mem/src/lib.zz:3
(declare-fun var18___mem__copy__t0 () (_ BitVec 64))
(declare-fun var19_true__t0 () Bool)
(assert
  (= var19_true__t0 (theory1_safe var18___mem__copy__t0) )
)

(assert
  var19_true__t0
)

; : /home/runner/work/carrier/carrier/core/src/sha256.zz:18
; : /home/runner/work/carrier/carrier/core/src/sha256.zz:30
(declare-fun var21___carrier__sha256__update__t0 () (_ BitVec 64))
(declare-fun var22_true__t0 () Bool)
(assert
  (= var22_true__t0 (theory1_safe var21___carrier__sha256__update__t0) )
)

(assert
  var22_true__t0
)

; : /home/runner/work/carrier/carrier/modules/buffer/src/lib.zz:84
(declare-fun var23___buffer__push__t0 () (_ BitVec 64))
(declare-fun var24_true__t0 () Bool)
(assert
  (= var24_true__t0 (theory1_safe var23___buffer__push__t0) )
)

(assert
  var24_true__t0
)

; : /home/runner/work/carrier/carrier/modules/buffer/src/lib.zz:101
(declare-fun var25___buffer__pop__t0 () (_ BitVec 64))
(declare-fun var26_true__t0 () Bool)
(assert
  (= var26_true__t0 (theory1_safe var25___buffer__pop__t0) )
)

(assert
  var26_true__t0
)

; : /home/runner/work/carrier/carrier/modules/buffer/src/lib.zz:367
(declare-fun var27___buffer__split__t0 () (_ BitVec 64))
(declare-fun var28_true__t0 () Bool)
(assert
  (= var28_true__t0 (theory1_safe var27___buffer__split__t0) )
)

(assert
  var28_true__t0
)

; : /home/runner/work/carrier/carrier/modules/buffer/src/lib.zz:50
(declare-fun var29___buffer__cstr__t0 () (_ BitVec 64))
(declare-fun var30_true__t0 () Bool)
(assert
  (= var30_true__t0 (theory1_safe var29___buffer__cstr__t0) )
)

(assert
  var30_true__t0
)

; : /home/runner/work/carrier/carrier/modules/buffer/src/lib.zz:207
(declare-fun var31___buffer__vformat__t0 () (_ BitVec 64))
(declare-fun var32_true__t0 () Bool)
(assert
  (= var32_true__t0 (theory1_safe var31___buffer__vformat__t0) )
)

(assert
  var32_true__t0
)

; : /home/runner/work/carrier/carrier/modules/slice/src/mut_slice.zz:5
; : /home/runner/work/carrier/carrier/modules/slice/src/mut_slice.zz:11
(declare-fun theory34___slice__mut_slice__integrity ((_ BitVec 64)) Bool); theory ::slice::mut_slice::integrity
; : /home/runner/work/carrier/carrier/modules/slice/src/mut_slice.zz:153
(declare-fun var35___slice__mut_slice__push64__t0 () (_ BitVec 64))
(declare-fun var36_true__t0 () Bool)
(assert
  (= var36_true__t0 (theory1_safe var35___slice__mut_slice__push64__t0) )
)

(assert
  var36_true__t0
)

; : /home/runner/work/carrier/carrier/modules/slice/src/slice.zz:95
(declare-fun var37___slice__slice__sub__t0 () (_ BitVec 64))
(declare-fun var38_true__t0 () Bool)
(assert
  (= var38_true__t0 (theory1_safe var37___slice__slice__sub__t0) )
)

(assert
  var38_true__t0
)

; : /home/runner/work/carrier/carrier/modules/slice/src/slice.zz:43
(declare-fun var39___slice__slice__empty__t0 () (_ BitVec 64))
(declare-fun var40_true__t0 () Bool)
(assert
  (= var40_true__t0 (theory1_safe var39___slice__slice__empty__t0) )
)

(assert
  var40_true__t0
)

; : /home/runner/work/carrier/carrier/modules/buffer/src/lib.zz:178
(declare-fun var41___buffer__append_bytes__t0 () (_ BitVec 64))
(declare-fun var42_true__t0 () Bool)
(assert
  (= var42_true__t0 (theory1_safe var41___buffer__append_bytes__t0) )
)

(assert
  var42_true__t0
)

; : /home/runner/work/carrier/carrier/core/src/sha256.zz:7
; : /home/runner/work/carrier/carrier/core/src/sha256.zz:7
; literal expr
(declare-fun var44_literal_Unsigned_32___t0 () (_ BitVec 64))
(assert
  (= var44_literal_Unsigned_32___t0 (_ bv32 64))

)

; : /home/runner/work/carrier/carrier/core/src/sha256.zz:7
(declare-fun var45_safe_literal_Unsigned_32______safe___carrier__sha256__HASHLEN___t0 () Bool)
(assert
  (= var45_safe_literal_Unsigned_32______safe___carrier__sha256__HASHLEN___t0 (theory1_safe var44_literal_Unsigned_32___t0) )
)

(declare-fun var43___carrier__sha256__HASHLEN__t1 () (_ BitVec 64))
(assert
  (= var45_safe_literal_Unsigned_32______safe___carrier__sha256__HASHLEN___t0 (theory1_safe var43___carrier__sha256__HASHLEN__t1) )
)

(declare-fun var46_nullterm_literal_Unsigned_32______nullterm___carrier__sha256__HASHLEN___t0 () Bool)
(assert
  (= var46_nullterm_literal_Unsigned_32______nullterm___carrier__sha256__HASHLEN___t0 (theory2_nullterm var44_literal_Unsigned_32___t0) )
)

(assert
  (= var46_nullterm_literal_Unsigned_32______nullterm___carrier__sha256__HASHLEN___t0 (theory2_nullterm var43___carrier__sha256__HASHLEN__t1) )
)

; : /home/runner/work/carrier/carrier/core/src/sha256.zz:7
(declare-fun var47_implicit_coercion_of_literal_Unsigned_32___t0 () (_ BitVec 64))
(assert (! (= var47_implicit_coercion_of_literal_Unsigned_32___t0 var44_literal_Unsigned_32___t0) :named A0))(declare-fun var43___carrier__sha256__HASHLEN__t0 () (_ BitVec 64))
(assert
  (= var43___carrier__sha256__HASHLEN__t1  (ite true var47_implicit_coercion_of_literal_Unsigned_32___t0 var43___carrier__sha256__HASHLEN__t0)  )
)

; : /home/runner/work/carrier/carrier/core/src/sha256.zz:60
(declare-fun var48___carrier__sha256__finish__t0 () (_ BitVec 64))
(declare-fun var49_true__t0 () Bool)
(assert
  (= var49_true__t0 (theory1_safe var48___carrier__sha256__finish__t0) )
)

(assert
  var49_true__t0
)

; : /home/runner/work/carrier/carrier/modules/slice/src/mut_slice.zz:168
(declare-fun var50___slice__mut_slice__append_obj__t0 () (_ BitVec 64))
(declare-fun var51_true__t0 () Bool)
(assert
  (= var51_true__t0 (theory1_safe var50___slice__mut_slice__append_obj__t0) )
)

(assert
  var51_true__t0
)

; : /home/runner/work/carrier/carrier/modules/slice/src/mut_slice.zz:5
; : /home/runner/work/carrier/carrier/modules/buffer/src/lib.zz:75
(declare-fun var52___buffer__as_mut_slice__t0 () (_ BitVec 64))
(declare-fun var53_true__t0 () Bool)
(assert
  (= var53_true__t0 (theory1_safe var52___buffer__as_mut_slice__t0) )
)

(assert
  var53_true__t0
)

; : /home/runner/work/carrier/carrier/modules/buffer/src/lib.zz:194
(declare-fun var54___buffer__format__t0 () (_ BitVec 64))
(declare-fun var55_true__t0 () Bool)
(assert
  (= var55_true__t0 (theory1_safe var54___buffer__format__t0) )
)

(assert
  var55_true__t0
)

; : /home/runner/work/carrier/carrier/modules/buffer/src/lib.zz:236
(declare-fun var56___buffer__eq_cstr__t0 () (_ BitVec 64))
(declare-fun var57_true__t0 () Bool)
(assert
  (= var57_true__t0 (theory1_safe var56___buffer__eq_cstr__t0) )
)

(assert
  var57_true__t0
)

; : /home/runner/work/carrier/carrier/modules/slice/src/slice.zz:135
(declare-fun var58___slice__slice__atoi__t0 () (_ BitVec 64))
(declare-fun var59_true__t0 () Bool)
(assert
  (= var59_true__t0 (theory1_safe var58___slice__slice__atoi__t0) )
)

(assert
  var59_true__t0
)

; : /home/runner/work/carrier/carrier/core/src/sha256.zz:18
; : /home/runner/work/carrier/carrier/modules/buffer/src/lib.zz:11
; : /home/runner/work/carrier/carrier/modules/buffer/src/lib.zz:418
(declare-fun var60___buffer__copy_cstr__t0 () (_ BitVec 64))
(declare-fun var61_true__t0 () Bool)
(assert
  (= var61_true__t0 (theory1_safe var60___buffer__copy_cstr__t0) )
)

(assert
  var61_true__t0
)

; : /home/runner/work/carrier/carrier/core/src/sha256.zz:8
; : /home/runner/work/carrier/carrier/core/src/sha256.zz:8
; literal expr
(declare-fun var63_literal_Unsigned_64___t0 () (_ BitVec 64))
(assert
  (= var63_literal_Unsigned_64___t0 (_ bv64 64))

)

; : /home/runner/work/carrier/carrier/core/src/sha256.zz:8
(declare-fun var64_safe_literal_Unsigned_64______safe___carrier__sha256__BLOCKLEN___t0 () Bool)
(assert
  (= var64_safe_literal_Unsigned_64______safe___carrier__sha256__BLOCKLEN___t0 (theory1_safe var63_literal_Unsigned_64___t0) )
)

(declare-fun var62___carrier__sha256__BLOCKLEN__t1 () (_ BitVec 64))
(assert
  (= var64_safe_literal_Unsigned_64______safe___carrier__sha256__BLOCKLEN___t0 (theory1_safe var62___carrier__sha256__BLOCKLEN__t1) )
)

(declare-fun var65_nullterm_literal_Unsigned_64______nullterm___carrier__sha256__BLOCKLEN___t0 () Bool)
(assert
  (= var65_nullterm_literal_Unsigned_64______nullterm___carrier__sha256__BLOCKLEN___t0 (theory2_nullterm var63_literal_Unsigned_64___t0) )
)

(assert
  (= var65_nullterm_literal_Unsigned_64______nullterm___carrier__sha256__BLOCKLEN___t0 (theory2_nullterm var62___carrier__sha256__BLOCKLEN__t1) )
)

; : /home/runner/work/carrier/carrier/core/src/sha256.zz:8
(declare-fun var66_implicit_coercion_of_literal_Unsigned_64___t0 () (_ BitVec 64))
(assert (! (= var66_implicit_coercion_of_literal_Unsigned_64___t0 var63_literal_Unsigned_64___t0) :named A1))(declare-fun var62___carrier__sha256__BLOCKLEN__t0 () (_ BitVec 64))
(assert
  (= var62___carrier__sha256__BLOCKLEN__t1  (ite true var66_implicit_coercion_of_literal_Unsigned_64___t0 var62___carrier__sha256__BLOCKLEN__t0)  )
)

; : /home/runner/work/carrier/carrier/modules/buffer/src/lib.zz:320
(declare-fun var67___buffer__substr__t0 () (_ BitVec 64))
(declare-fun var68_true__t0 () Bool)
(assert
  (= var68_true__t0 (theory1_safe var67___buffer__substr__t0) )
)

(assert
  var68_true__t0
)

; : /home/runner/work/carrier/carrier/modules/buffer/src/lib.zz:43
(declare-fun var69___buffer__slen__t0 () (_ BitVec 64))
(declare-fun var70_true__t0 () Bool)
(assert
  (= var70_true__t0 (theory1_safe var69___buffer__slen__t0) )
)

(assert
  var70_true__t0
)

; : /home/runner/work/carrier/carrier/modules/buffer/src/lib.zz:33
(declare-fun var71___buffer__clear__t0 () (_ BitVec 64))
(declare-fun var72_true__t0 () Bool)
(assert
  (= var72_true__t0 (theory1_safe var71___buffer__clear__t0) )
)

(assert
  var72_true__t0
)

; : /home/runner/work/carrier/carrier/core/src/sha256.zz:25
(declare-fun var73___carrier__sha256__init__t0 () (_ BitVec 64))
(declare-fun var74_true__t0 () Bool)
(assert
  (= var74_true__t0 (theory1_safe var73___carrier__sha256__init__t0) )
)

(assert
  var74_true__t0
)

; : /home/runner/work/carrier/carrier/modules/slice/src/mut_slice.zz:94
(declare-fun var75___slice__mut_slice__append_cstr__t0 () (_ BitVec 64))
(declare-fun var76_true__t0 () Bool)
(assert
  (= var76_true__t0 (theory1_safe var75___slice__mut_slice__append_cstr__t0) )
)

(assert
  var76_true__t0
)

; : /home/runner/work/carrier/carrier/modules/buffer/src/lib.zz:286
(declare-fun var77___buffer__ends_with_cstr__t0 () (_ BitVec 64))
(declare-fun var78_true__t0 () Bool)
(assert
  (= var78_true__t0 (theory1_safe var77___buffer__ends_with_cstr__t0) )
)

(assert
  var78_true__t0
)

; : /home/runner/work/carrier/carrier/modules/buffer/src/lib.zz:143
(declare-fun var79___buffer__append_cstr__t0 () (_ BitVec 64))
(declare-fun var80_true__t0 () Bool)
(assert
  (= var80_true__t0 (theory1_safe var79___buffer__append_cstr__t0) )
)

(assert
  var80_true__t0
)

; : /home/runner/work/carrier/carrier/core/src/sha256.zz:14
(declare-fun var81___carrier__sha256__blocklen__t0 () (_ BitVec 64))
(declare-fun var82_true__t0 () Bool)
(assert
  (= var82_true__t0 (theory1_safe var81___carrier__sha256__blocklen__t0) )
)

(assert
  var82_true__t0
)

; : /home/runner/work/carrier/carrier/core/src/sha256.zz:116
(declare-fun var83___carrier__sha256__hmac__t0 () (_ BitVec 64))
(declare-fun var84_true__t0 () Bool)
(assert
  (= var84_true__t0 (theory1_safe var83___carrier__sha256__hmac__t0) )
)

(assert
  var84_true__t0
)

; : /home/runner/work/carrier/carrier/modules/slice/src/slice.zz:33
(declare-fun var85___slice__slice__eq_bytes__t0 () (_ BitVec 64))
(declare-fun var86_true__t0 () Bool)
(assert
  (= var86_true__t0 (theory1_safe var85___slice__slice__eq_bytes__t0) )
)

(assert
  var86_true__t0
)

; : /home/runner/work/carrier/carrier/modules/slice/src/slice.zz:51
(declare-fun var87___slice__slice__make__t0 () (_ BitVec 64))
(declare-fun var88_true__t0 () Bool)
(assert
  (= var88_true__t0 (theory1_safe var87___slice__slice__make__t0) )
)

(assert
  var88_true__t0
)

; : /home/runner/work/carrier/carrier/modules/slice/src/slice.zz:24
(declare-fun var89___slice__slice__eq_cstr__t0 () (_ BitVec 64))
(declare-fun var90_true__t0 () Bool)
(assert
  (= var90_true__t0 (theory1_safe var89___slice__slice__eq_cstr__t0) )
)

(assert
  var90_true__t0
)

; : /home/runner/work/carrier/carrier/modules/slice/src/mut_slice.zz:56
(declare-fun var91___slice__mut_slice__append_slice__t0 () (_ BitVec 64))
(declare-fun var92_true__t0 () Bool)
(assert
  (= var92_true__t0 (theory1_safe var91___slice__mut_slice__append_slice__t0) )
)

(assert
  var92_true__t0
)

; : /home/runner/work/carrier/carrier/modules/slice/src/mut_slice.zz:138
(declare-fun var93___slice__mut_slice__push32__t0 () (_ BitVec 64))
(declare-fun var94_true__t0 () Bool)
(assert
  (= var94_true__t0 (theory1_safe var93___slice__mut_slice__push32__t0) )
)

(assert
  var94_true__t0
)

; : /home/runner/work/carrier/carrier/modules/slice/src/mut_slice.zz:49
(declare-fun var95___slice__mut_slice__space__t0 () (_ BitVec 64))
(declare-fun var96_true__t0 () Bool)
(assert
  (= var96_true__t0 (theory1_safe var95___slice__mut_slice__space__t0) )
)

(assert
  var96_true__t0
)

; : /home/runner/work/carrier/carrier/modules/slice/src/mut_slice.zz:108
(declare-fun var97___slice__mut_slice__push__t0 () (_ BitVec 64))
(declare-fun var98_true__t0 () Bool)
(assert
  (= var98_true__t0 (theory1_safe var97___slice__mut_slice__push__t0) )
)

(assert
  var98_true__t0
)

; : /home/runner/work/carrier/carrier/modules/buffer/src/lib.zz:161
(declare-fun var99___buffer__append_slice__t0 () (_ BitVec 64))
(declare-fun var100_true__t0 () Bool)
(assert
  (= var100_true__t0 (theory1_safe var99___buffer__append_slice__t0) )
)

(assert
  var100_true__t0
)

; : /home/runner/work/carrier/carrier/modules/buffer/src/lib.zz:270
(declare-fun var101___buffer__starts_with_cstr__t0 () (_ BitVec 64))
(declare-fun var102_true__t0 () Bool)
(assert
  (= var102_true__t0 (theory1_safe var101___buffer__starts_with_cstr__t0) )
)

(assert
  var102_true__t0
)

; : /home/runner/work/carrier/carrier/modules/buffer/src/lib.zz:398
(declare-fun var103___buffer__copy_bytes__t0 () (_ BitVec 64))
(declare-fun var104_true__t0 () Bool)
(assert
  (= var104_true__t0 (theory1_safe var103___buffer__copy_bytes__t0) )
)

(assert
  var104_true__t0
)

; : /home/runner/work/carrier/carrier/modules/buffer/src/lib.zz:408
(declare-fun var105___buffer__copy_slice__t0 () (_ BitVec 64))
(declare-fun var106_true__t0 () Bool)
(assert
  (= var106_true__t0 (theory1_safe var105___buffer__copy_slice__t0) )
)

(assert
  var106_true__t0
)

; : /home/runner/work/carrier/carrier/modules/buffer/src/lib.zz:25
(declare-fun var107___buffer__make__t0 () (_ BitVec 64))
(declare-fun var108_true__t0 () Bool)
(assert
  (= var108_true__t0 (theory1_safe var107___buffer__make__t0) )
)

(assert
  var108_true__t0
)

; : /home/runner/work/carrier/carrier/modules/slice/src/mut_slice.zz:75
(declare-fun var109___slice__mut_slice__append_bytes__t0 () (_ BitVec 64))
(declare-fun var110_true__t0 () Bool)
(assert
  (= var110_true__t0 (theory1_safe var109___slice__mut_slice__append_bytes__t0) )
)

(assert
  var110_true__t0
)

; : /home/runner/work/carrier/carrier/modules/slice/src/mut_slice.zz:123
(declare-fun var111___slice__mut_slice__push16__t0 () (_ BitVec 64))
(declare-fun var112_true__t0 () Bool)
(assert
  (= var112_true__t0 (theory1_safe var111___slice__mut_slice__push16__t0) )
)

(assert
  var112_true__t0
)

; : /home/runner/work/carrier/carrier/core/src/sha256.zz:67
(declare-fun var113___carrier__sha256__hkdf__t0 () (_ BitVec 64))
(declare-fun var114_true__t0 () Bool)
(assert
  (= var114_true__t0 (theory1_safe var113___carrier__sha256__hkdf__t0) )
)

(assert
  var114_true__t0
)

; : /home/runner/work/carrier/carrier/modules/slice/src/mut_slice.zz:36
(declare-fun var115___slice__mut_slice__as_slice__t0 () (_ BitVec 64))
(declare-fun var116_true__t0 () Bool)
(assert
  (= var116_true__t0 (theory1_safe var115___slice__mut_slice__as_slice__t0) )
)

(assert
  var116_true__t0
)

; : /home/runner/work/carrier/carrier/core/src/sha256.zz:10
(declare-fun var117___carrier__sha256__hashlen__t0 () (_ BitVec 64))
(declare-fun var118_true__t0 () Bool)
(assert
  (= var118_true__t0 (theory1_safe var117___carrier__sha256__hashlen__t0) )
)

(assert
  var118_true__t0
)

; : /home/runner/work/carrier/carrier/modules/slice/src/slice.zz:14
(declare-fun var119___slice__slice__eq__t0 () (_ BitVec 64))
(declare-fun var120_true__t0 () Bool)
(assert
  (= var120_true__t0 (theory1_safe var119___slice__slice__eq__t0) )
)

(assert
  var120_true__t0
)

; : /home/runner/work/carrier/carrier/modules/slice/src/mut_slice.zz:20
(declare-fun var121___slice__mut_slice__make__t0 () (_ BitVec 64))
(declare-fun var122_true__t0 () Bool)
(assert
  (= var122_true__t0 (theory1_safe var121___slice__mut_slice__make__t0) )
)

(assert
  var122_true__t0
)

;


;----------------------------------------------
;function ::carrier::sha256::finish
;----------------------------------------------

(push 1)

; : /home/runner/work/carrier/carrier/core/src/sha256.zz:60
; : /home/runner/work/carrier/carrier/core/src/sha256.zz:60
; : /home/runner/work/carrier/carrier/core/src/sha256.zz:60
; call of safe
; collecting theory invocation arguments
; end of collecting theory invocation arguments
(declare-fun var124_out__t0 () (_ BitVec 64))
(declare-fun var125_interpretation_of_theory_safe_over_out__t0 () Bool)
(assert
  (= var125_interpretation_of_theory_safe_over_out__t0 (theory1_safe var124_out__t0) )
)

(assert (! var125_interpretation_of_theory_safe_over_out__t0 :named A2))(check-sat)

; : /home/runner/work/carrier/carrier/core/src/sha256.zz:60
; call of safe
; collecting theory invocation arguments
; end of collecting theory invocation arguments
(declare-fun var123_self__t0 () (_ BitVec 64))
(declare-fun var126_interpretation_of_theory_safe_over_self__t0 () Bool)
(assert
  (= var126_interpretation_of_theory_safe_over_self__t0 (theory1_safe var123_self__t0) )
)

(assert (! var126_interpretation_of_theory_safe_over_self__t0 :named A3))(check-sat)

; : /home/runner/work/carrier/carrier/core/src/sha256.zz:61
; : /home/runner/work/carrier/carrier/core/src/sha256.zz:61
; call of len
; : /home/runner/work/carrier/carrier/core/src/sha256.zz:61
; : /home/runner/work/carrier/carrier/core/src/sha256.zz:61
; : /home/runner/work/carrier/carrier/core/src/sha256.zz:61
; collecting theory invocation arguments
; end of collecting theory invocation arguments
; : /home/runner/work/carrier/carrier/core/src/sha256.zz:61
(declare-fun var127_interpretation_of_theory_len_over_out__t0 () (_ BitVec 64))
(assert
  (= var127_interpretation_of_theory_len_over_out__t0 (theory0_len var124_out__t0) )
)

; : /home/runner/work/carrier/carrier/core/src/sha256.zz:61
; : /home/runner/work/carrier/carrier/core/src/sha256.zz:61
(declare-fun var128_infix_expression__t0 () Bool)
(assert
  (=  var128_infix_expression__t0 (bvuge var127_interpretation_of_theory_len_over_out__t0 var43___carrier__sha256__HASHLEN__t1))
)

(assert (! var128_infix_expression__t0 :named A4))(check-sat)

; : /home/runner/work/carrier/carrier/core/src/sha256.zz:63
; call of ::ext::"/home/runner/work/carrier/carrier/core/3rdparty/hacl-star/dist/gcc-compatible/Hacl_Hash.h"::Hacl_Hash_SHA2_update_last_256
; : /home/runner/work/carrier/carrier/core/src/sha256.zz:63
; : /home/runner/work/carrier/carrier/core/src/sha256.zz:63
; : /home/runner/work/carrier/carrier/core/src/sha256.zz:63
; : /home/runner/work/carrier/carrier/core/src/sha256.zz:63
; begin safe ptr check
(declare-fun var131_safe_self___t0 () Bool)
(assert
  (= var131_safe_self___t0 (theory1_safe var123_self__t0) )
)

(push 1)

(assert
  (and true (or (not var131_safe_self___t0 ) ))

)

(check-sat)

; unsat / pass
(pop 1)

; : /home/runner/work/carrier/carrier/core/src/sha256.zz:19
; literal expr
(declare-fun var132_literal_Unsigned_8___t0 () (_ BitVec 64))
(assert
  (= var132_literal_Unsigned_8___t0 (_ bv8 64))

)

(check-sat)

(get-value (

  var132_literal_Unsigned_8___t0

) )

;  = "#x0000000000000008"
(push 1)

(assert
  (not (= var132_literal_Unsigned_8___t0 #x0000000000000008))
)

(check-sat)

(pop 1)

(push 1)

(check-sat)

(pop 1)

; : /home/runner/work/carrier/carrier/core/src/sha256.zz:63
(declare-fun var133_deref_var123_self__state__t0 () (_ BitVec 64))
(declare-fun var134_len_deref_var123_self__state___t0 () (_ BitVec 64))
(assert
  (= var134_len_deref_var123_self__state___t0 (theory0_len var133_deref_var123_self__state__t0) )
)

(assert
  (= var134_len_deref_var123_self__state___t0 (_ bv8 64))

)

(declare-fun var135_true__t0 () Bool)
(assert
  (= var135_true__t0 (theory1_safe var133_deref_var123_self__state__t0) )
)

(assert
  var135_true__t0
)

; : /home/runner/work/carrier/carrier/core/src/sha256.zz:63
; : /home/runner/work/carrier/carrier/core/src/sha256.zz:63
; : /home/runner/work/carrier/carrier/core/src/sha256.zz:63
; : /home/runner/work/carrier/carrier/core/src/sha256.zz:63
; : /home/runner/work/carrier/carrier/core/src/sha256.zz:63
; literal expr
(declare-fun var137_literal_Unsigned_64___t0 () (_ BitVec 64))
(assert
  (= var137_literal_Unsigned_64___t0 (_ bv64 64))

)

(declare-fun var138_implicit_coercion_of_literal_Unsigned_64___t0 () (_ BitVec 64))
(assert (! (= var138_implicit_coercion_of_literal_Unsigned_64___t0 var137_literal_Unsigned_64___t0) :named A5)); : /home/runner/work/carrier/carrier/core/src/sha256.zz:63
(declare-fun var139_infix_expression__t0 () (_ BitVec 64))
(declare-fun var136_deref_var123_self__blockcounter__t0 () (_ BitVec 64))
(assert
  (=  var139_infix_expression__t0 (bvmul var136_deref_var123_self__blockcounter__t0 var138_implicit_coercion_of_literal_Unsigned_64___t0))
)

; : /home/runner/work/carrier/carrier/core/src/sha256.zz:63
; : /home/runner/work/carrier/carrier/core/src/sha256.zz:63
; : /home/runner/work/carrier/carrier/core/src/sha256.zz:20
; literal expr
(declare-fun var140_literal_Unsigned_64___t0 () (_ BitVec 64))
(assert
  (= var140_literal_Unsigned_64___t0 (_ bv64 64))

)

(check-sat)

(get-value (

  var140_literal_Unsigned_64___t0

) )

;  = "#x0000000000000040"
(push 1)

(assert
  (not (= var140_literal_Unsigned_64___t0 #x0000000000000040))
)

(check-sat)

(pop 1)

(push 1)

(check-sat)

(pop 1)

; : /home/runner/work/carrier/carrier/core/src/sha256.zz:63
(declare-fun var141_deref_var123_self__block__t0 () (_ BitVec 64))
(declare-fun var142_len_deref_var123_self__block___t0 () (_ BitVec 64))
(assert
  (= var142_len_deref_var123_self__block___t0 (theory0_len var141_deref_var123_self__block__t0) )
)

(assert
  (= var142_len_deref_var123_self__block___t0 (_ bv64 64))

)

(declare-fun var143_true__t0 () Bool)
(assert
  (= var143_true__t0 (theory1_safe var141_deref_var123_self__block__t0) )
)

(assert
  var143_true__t0
)

; : /home/runner/work/carrier/carrier/core/src/sha256.zz:63
; : /home/runner/work/carrier/carrier/core/src/sha256.zz:63
; : /home/runner/work/carrier/carrier/core/src/sha256.zz:63
; : /home/runner/work/carrier/carrier/core/src/sha256.zz:63
; : /home/runner/work/carrier/carrier/core/src/sha256.zz:64
; call of ::ext::"/home/runner/work/carrier/carrier/core/3rdparty/hacl-star/dist/gcc-compatible/Hacl_Hash.h"::Hacl_Hash_Core_SHA2_finish_256
; : /home/runner/work/carrier/carrier/core/src/sha256.zz:64
; : /home/runner/work/carrier/carrier/core/src/sha256.zz:64
; : /home/runner/work/carrier/carrier/core/src/sha256.zz:64
; : /home/runner/work/carrier/carrier/core/src/sha256.zz:64
; : /home/runner/work/carrier/carrier/core/src/sha256.zz:64
;end of function ::carrier::sha256::finish


(pop 1)

(declare-fun var124_out__t0 () (_ BitVec 64))
(declare-fun var125_interpretation_of_theory_safe_over_out__t0 () Bool)
(declare-fun var123_self__t0 () (_ BitVec 64))
(declare-fun var126_interpretation_of_theory_safe_over_self__t0 () Bool)
(declare-fun var127_interpretation_of_theory_len_over_out__t0 () (_ BitVec 64))
(declare-fun var131_safe_self___t0 () Bool)
(declare-fun var132_literal_Unsigned_8___t0 () (_ BitVec 64))
(declare-fun var133_deref_var123_self__state__t0 () (_ BitVec 64))
(declare-fun var134_len_deref_var123_self__state___t0 () (_ BitVec 64))
(declare-fun var135_true__t0 () Bool)
(declare-fun var137_literal_Unsigned_64___t0 () (_ BitVec 64))
(declare-fun var136_deref_var123_self__blockcounter__t0 () (_ BitVec 64))
(declare-fun var140_literal_Unsigned_64___t0 () (_ BitVec 64))
(declare-fun var141_deref_var123_self__block__t0 () (_ BitVec 64))
(declare-fun var142_len_deref_var123_self__block___t0 () (_ BitVec 64))
(declare-fun var143_true__t0 () Bool)
(check-sat)

